db/data/25610253721128252297310224092700424755.z3.out
-------------------
2500.178956000
